p cnf 33 69
-2 3 6 0
-2 -26 3 5 0
-2 26 3 -5 0
2 -3 0
2 26 5 -6 0
2 -26 -5 -6 0
3 -17 -4 0
-3 17 0
-3 4 0
4 21 -22 0
-4 -21 0
-4 22 0
5 -19 -20 0
-5 19 0
-5 20 0
6 -21 -22 0
-6 21 0
-6 22 0
-7 6 9 0
-7 -28 8 9 0
-7 28 -8 9 0
7 -9 0
7 28 8 -6 0
7 -28 -8 -6 0
8 -19 -20 26 0
-8 19 0
-8 20 0
-8 -26 0
9 -18 -4 0
-9 18 0
-9 4 0
-10 23 11 0
-10 4 11 0
10 -11 0
10 -23 -4 0
11 29 8 -6 0
11 -28 29 -6 0
11 28 -29 -8 -6 0
-11 -29 8 0
-11 28 29 -8 0
-11 6 0
-11 -28 -29 0
-12 6 14 0
-12 -30 13 14 0
-12 30 -13 14 0
12 -14 0
12 30 -6 13 0
12 -30 -6 -13 0
13 28 29 -8 0
-13 8 0
-13 -29 0
-13 -28 0
14 -24 -4 0
-14 24 0
-14 4 0
15 -20 -25 -32 -16 0
-15 16 0
-15 20 0
-15 32 0
-15 25 0
16 -27 -31 0
-16 27 0
-16 31 0
-33 0
-2 0
-7 0
-10 0
-12 0
15 0

